n = 50;
C = 7568;
w = [270,371,195,408,115,8,99,382,126,442,500,483,389,395,414,30,409,418,131,486,324,389,184,404,293,323,328,264,365,292,462,354,484,495,351,59,449,59,229,304,65,145,194,418,208,229,395,255,294,451];
p = [1360,1865,985,2050,585,50,505,1920,640,2220,2510,2425,1955,1985,2080,160,2055,2100,665,2440,1630,1955,930,2030,1475,1625,1650,1330,1835,1470,2320,1780,2430,2485,1765,305,2255,305,1155,1530,335,735,980,2100,1050,1155,1985,1285,1480,2265];
